c
c
c
c
c
9 45
0 0 -1
0 1 4
0 2 3
0 3 30
0 4 1
0 5 19
0 6 23
0 7 7
0 8 27
1 1 -1
1 2 22
1 3 12
1 4 4
1 5 6
1 6 19
1 7 24
1 8 1
2 2 -1
2 3 30
2 4 3
2 5 8
2 6 18
2 7 3
2 8 9
3 3 -1
3 4 14
3 5 10
3 6 13
3 7 25
3 8 20
4 4 -1
4 5 18
4 6 11
4 7 25
4 8 16
5 5 -1
5 6 15
5 7 21
5 8 23
6 6 -1
6 7 4
6 8 22
7 7 -1
7 8 7
8 8 -1
